NAME: eil51
COMMENT: Gabriela, Higor, Vitor - Twice-Around-the-Tree com 2-Opt
TYPE: TOUR
DIMENSION: 51
TOTAL WEIGHT: 458
TOUR_SECTION
1
22
3
20
35
36
28
31
26
8
48
23
7
43
24
6
27
51
46
12
47
4
18
14
25
13
41
40
19
42
44
45
33
15
37
17
5
10
39
30
34
21
29
16
50
9
49
38
11
2
32
EOF
